100 100
37 26 34 56 34 44 40 51 48 38 36 52 57 35 53 54 58 29 36 58
43 29 51 33 68 52 72 73 35 72 38 31 41 69 54 44 48 32 39 53
1591 754 1734 1848 2312 2288 2880 3723 1680 2736 1368 1612 2337 2415 2862 2376 2784 928 1404 3074